50
324 621 9 983 823 1000 264 200 55 194 25 692 366 816 761 350 167 348 31 649 190 149 889 438 947 981 664 250 148 247 737 512 298 18 352 393 70 250 296 416 494 566 850 295 95 304 217 576 477 322 
424 721 109 1083 923 1100 364 300 155 294 125 792 466 916 861 450 267 448 131 749 290 249 989 538 1047 1081 764 350 248 347 837 612 398 118 452 493 170 350 396 516 594 666 950 395 195 404 317 676 577 422 
10454
